NAME: I16401-n43-k3
COMMENT : (Fake et al, No of trucks: 3, Optimal value: )
TYPE : CVRP
DIMENSION : 43
EDGE_WEIGHT_TYPE : EUC_2D
CAPACITY : 39
NODE_COORD_SECTION
1 491 492
2 143 489
3 193 86
4 529 387
5 318 533
6 576 483
7 809 536
8 500 467
9 22 700
10 990 535
11 224 138
12 379 470
13 6 537
14 93 971
15 542 145
16 705 571
17 153 476
18 794 112
19 912 415
20 312 9
21 438 569
22 207 673
23 48 609
24 512 544
25 740 97
26 110 747
27 822 903
28 621 366
29 562 564
30 691 638
31 349 997
32 75 16
33 583 306
34 405 306
35 760 447
36 438 257
37 629 81
38 294 983
39 690 387
40 68 348
41 539 89
42 51 861
43 652 979
DEMAND_SECTION
1 0
2 4
3 4
4 2
5 2
6 3
7 4
8 2
9 1
10 2
11 1
12 2
13 2
14 2
15 3
16 1
17 3
18 1
19 2
20 4
21 3
22 1
23 4
24 3
25 3
26 2
27 3
28 1
29 1
30 1
31 3
32 4
33 2
34 2
35 3
36 4
37 1
38 3
39 2
40 4
41 2
42 2
43 2
DEPOT_SECTION
 1
 -1
 EOF 